
Gurobi 11.0.2 (win64) logging started Mon Nov 25 23:45:53 2024

Set parameter LogFile to value ".\Experiments\Verification_16_eps0.0001\Logs\vit_18_1_6_12_i4_r1_c4.log"
Set parameter TimeLimit to value 43200
Gurobi Optimizer version 11.0.2 build v11.0.2rc0 (win64 - Windows 10.0 (19045.2))

CPU model: Intel(R) Core(TM) i7-10750H CPU @ 2.60GHz, instruction set [SSE2|AVX|AVX2]
Thread count: 6 physical cores, 12 logical processors, using up to 12 threads

Optimize a model with 5391 rows, 6291 columns and 23336 nonzeros
Model fingerprint: 0x229c7027
Model has 1642 quadratic constraints
Model has 210 general constraints
Variable types: 6141 continuous, 150 integer (150 binary)
Coefficient statistics:
  Matrix range     [9e-05, 3e+02]
  QMatrix range    [1e+00, 1e+00]
  QLMatrix range   [1e+00, 1e+00]
  Objective range  [1e+00, 1e+00]
  Bounds range     [1e-04, 3e+03]
  RHS range        [1e-04, 1e+03]
  QRHS range       [1e-06, 1e-06]
Presolve removed 4569 rows and 4086 columns
Presolve time: 0.13s
Presolved: 6423 rows, 2206 columns, 24523 nonzeros
Presolved model has 1295 bilinear constraint(s)
Presolved model has 123 nonlinear constraint(s)

Solving non-convex MINLP

Variable types: 2190 continuous, 16 integer (16 binary)

Root relaxation: objective 7.017596e+01, 2728 iterations, 0.16 seconds (0.11 work units)

    Nodes    |    Current Node    |     Objective Bounds      |     Work
 Expl Unexpl |  Obj  Depth IntInf | Incumbent    BestBd   Gap | It/Node Time

     0     0   70.17596    0 1103          -   70.17596      -     -    0s
     0     0   69.71751    0 1051          -   69.71751      -     -    1s
     0     0   69.64447    0 1057          -   69.64447      -     -    1s
     0     0   69.64447    0 1057          -   69.64447      -     -    1s
     0     0   69.63768    0 1057          -   69.63768      -     -    1s
     0     0   69.63456    0 1059          -   69.63456      -     -    1s
     0     0   69.63192    0 1054          -   69.63192      -     -    1s
     0     0   69.63139    0 1054          -   69.63139      -     -    1s
     0     0   69.61289    0 1053          -   69.61289      -     -    1s
     0     0   69.61161    0 1054          -   69.61161      -     -    1s
     0     0   69.60642    0 1053          -   69.60642      -     -    1s
     0     0   69.60642    0 1053          -   69.60642      -     -    1s
     0     0   69.60590    0 1054          -   69.60590      -     -    1s
     0     0   69.60575    0 1054          -   69.60575      -     -    1s
     0     0   69.60572    0 1054          -   69.60572      -     -    1s
     0     0   69.60506    0 1053          -   69.60506      -     -    2s
     0     0   69.60486    0 1053          -   69.60486      -     -    2s
     0     0   69.60473    0 1053          -   69.60473      -     -    2s
     0     0   69.20771    0 1034          -   69.20771      -     -   10s
     0     2   69.20771    0 1034          -   69.20771      -     -   11s
    15     4   68.48938    6 1030          -   68.70573      -  86.5   20s
   356   134   -1.47181   14 1038          -    3.36469      -   212   25s
  1470   253 infeasible   30               -   -5.84131      -   113   30s
  2519   170 infeasible   31               -  -11.48351      -   102   35s
  2857   165  -13.62215   29  992          -  -13.62215      -   100   47s
  3110   157  -16.03952   42 1027          -  -13.94579      -   104   50s
  3778   106  -16.09580   42 1012          -  -15.01064      -   105   55s
  4354   207  -16.46342   61    4          -  -15.90255      -   103   65s
  4355   207  -16.46342   62    3          -  -15.90255      -   103   75s
  4361   212  -16.42585   56    3          -  -15.90255      -   104   84s
  4362   213  -16.45047   62    1          -  -15.90255      -   104  128s
H 4364   205                     -16.7540425  -15.90255  5.08%   104  129s
  4366   206  -16.74822   39    0  -16.75404  -16.74822  0.03%   104  130s
  4367   207  -16.74822   24    0  -16.75404  -16.74822  0.03%   104  170s
H 4369   199                     -16.7540425  -16.74822  0.03%   106  170s

Explored 4370 nodes (474246 simplex iterations) in 171.67 seconds (135.98 work units)
Thread count was 12 (of 12 available processors)

Solution count 1: -16.754 

Optimal solution found (tolerance 1.00e-04)
Best objective -1.675404249482e+01, best bound -1.675387286979e+01, gap 0.0010%
